************************************************************************
file with basedata            : cn326_.bas
initial value random generator: 2013435054
************************************************************************
projects                      :  1
jobs (incl. supersource/sink ):  18
horizon                       :  127
RESOURCES
  - renewable                 :  2   R
  - nonrenewable              :  3   N
  - doubly constrained        :  0   D
************************************************************************
PROJECT INFORMATION:
pronr.  #jobs rel.date duedate tardcost  MPM-Time
    1     16      0       10       11       10
************************************************************************
PRECEDENCE RELATIONS:
jobnr.    #modes  #successors   successors
   1        1          3           2   3   4
   2        3          1          12
   3        3          3           5   7   9
   4        3          3           6   9  12
   5        3          3           6   8  13
   6        3          2          10  14
   7        3          3           8  11  16
   8        3          2          15  17
   9        3          2          13  16
  10        3          1          17
  11        3          2          13  14
  12        3          2          14  16
  13        3          1          15
  14        3          2          15  17
  15        3          1          18
  16        3          1          18
  17        3          1          18
  18        1          0        
************************************************************************
REQUESTS/DURATIONS:
jobnr. mode duration  R 1  R 2  N 1  N 2  N 3
------------------------------------------------------------------------
  1      1     0       0    0    0    0    0
  2      1     5       0    8    9   10    0
         2     6       0    8    8    9    9
         3     9       0    7    0    0    1
  3      1     2       9    0    0    6    0
         2     3       0    4    3    5    0
         3     6       6    0    2    0    2
  4      1     4       4    0    0    6    5
         2     4       5    0    0    0    4
         3    10       3    0    2    8    3
  5      1     2       0    4    0    7    3
         2     2       0    4    0   10    0
         3     6       3    0    6    6    0
  6      1     1      10    0    0    0    4
         2     8       0   10    0    9    0
         3     9       3    0    0    7    0
  7      1     2       9    0    9    2    5
         2     4       8    0    5    0    0
         3     6       0    3    0    1    0
  8      1     2       0    6    0    2    1
         2     5       0    3    0    2    0
         3     8       0    2   10    0    1
  9      1     1       0   10    8    0    9
         2     7       9    0    7    0    0
         3     9       0    6    0    0    9
 10      1     3       7    0    0    0    5
         2     6       6    0    2    0    0
         3    10       0    4    1    0    2
 11      1     3       8    0    6    0    7
         2     7       5    0    0    5    0
         3     8       0    6    0    4    0
 12      1     2       0    9    8    0    6
         2     2       4    0    0    6    0
         3     7       0    9    6    6    5
 13      1     1       4    0    7    0    0
         2     8       0    5    0   10    0
         3     9       0    4    6    0    0
 14      1     1       4    0    0   10    0
         2     4       0    7    0    8    0
         3     8       0    6    0    5    5
 15      1     2       0    7    8    8    0
         2     9       6    0    4    0    1
         3     9       8    0    3    6    0
 16      1     1       0    4    8    0    0
         2     2       8    0    7    0    3
         3     5       8    0    0    2    0
 17      1     2       8    0    0    0    7
         2     3       0    4    3    0    0
         3     8       5    0    0    0    6
 18      1     0       0    0    0    0    0
************************************************************************
RESOURCEAVAILABILITIES:
  R 1  R 2  N 1  N 2  N 3
   14   17   89   88   72
************************************************************************
